p cnf 247 545
-1 10 0 
1 201 0 
-10 -11 12 0 
-10 11 59 0 
-96 -97 99 0 
-96 97 127 0 
-97 98 0 
-97 67 0 
-98 5 0 
-99 -100 115 0 
-99 100 127 0 
-11 8 0 
-100 -101 108 0 
-100 101 113 0 
-101 102 105 0 
-102 -103 0 
-103 -104 73 0 
-103 -73 104 0 
-105 -106 0 
-106 -107 76 0 
-106 -76 107 0 
-108 -109 0 
-108 109 110 0 
-109 76 0 
-12 13 0 
-12 57 0 
-110 111 113 0 
-111 102 0 
-111 112 0 
-112 73 0 
-113 114 0 
-13 14 0 
-13 55 0 
-115 -116 127 0 
-115 116 134 0 
-116 117 0 
-116 125 0 
-117 118 0 
-117 123 0 
-118 119 0 
-118 121 0 
-119 120 0 
-121 122 0 
-123 124 0 
-14 15 0 
-14 53 0 
-125 -126 0 
-127 128 0 
-127 133 0 
-128 129 0 
-128 132 0 
-129 130 0 
-129 131 0 
-130 120 0 
-131 -122 0 
-132 124 0 
-133 -126 0 
-134 135 0 
-134 148 0 
-15 16 0 
-15 51 0 
-135 136 0 
-135 144 0 
-136 137 0 
-136 140 0 
-137 138 0 
-138 139 0 
-139 -120 0 
-140 -141 0 
-141 -142 -143 0 
-141 142 143 0 
-142 122 0 
-143 120 0 
-144 145 0 
-16 17 0 
-16 49 0 
-145 -146 -147 0 
-145 146 147 0 
-146 124 0 
-147 122 0 
-147 143 0 
-148 -149 0 
-149 -150 -151 0 
-149 150 151 0 
-150 126 0 
-151 124 0 
-151 147 0 
-152 153 0 
-154 155 0 
-154 199 0 
-17 18 0 
-17 47 0 
-155 156 0 
-155 197 0 
-156 157 0 
-156 195 0 
-157 158 0 
-157 193 0 
-158 159 0 
-158 191 0 
-159 160 0 
-159 189 0 
-160 161 0 
-160 187 0 
-161 162 0 
-161 185 0 
-162 163 0 
-162 183 0 
-163 164 0 
-163 181 0 
-164 165 0 
-164 179 0 
-1 2 6 0 
-18 19 0 
-18 45 0 
-165 166 0 
-165 177 0 
-166 167 0 
-166 175 0 
-167 168 0 
-167 173 0 
-168 169 0 
-168 171 0 
-169 -170 28 0 
-169 -28 170 0 
-171 -172 30 0 
-171 -30 172 0 
-173 -174 32 0 
-173 -32 174 0 
-19 20 0 
-19 43 0 
-175 -176 34 0 
-175 -34 176 0 
-177 -178 36 0 
-177 -36 178 0 
-179 -180 38 0 
-179 -38 180 0 
-181 -182 40 0 
-181 -40 182 0 
-183 -184 42 0 
-183 -42 184 0 
-20 21 0 
-20 41 0 
-185 -186 44 0 
-185 -44 186 0 
-187 -188 46 0 
-187 -46 188 0 
-189 -190 48 0 
-189 -48 190 0 
-191 -192 50 0 
-191 -50 192 0 
-193 -194 52 0 
-193 -52 194 0 
-21 22 0 
-21 39 0 
-195 -196 54 0 
-195 -54 196 0 
-197 -198 56 0 
-197 -56 198 0 
-199 -200 58 0 
-199 -58 200 0 
-201 202 0 
-201 246 0 
-202 203 0 
-202 244 0 
-203 204 0 
-203 242 0 
-204 205 0 
-204 240 0 
-22 23 0 
-22 37 0 
-205 206 0 
-205 238 0 
-206 207 0 
-206 236 0 
-207 208 0 
-207 234 0 
-208 209 0 
-208 232 0 
-209 210 0 
-209 230 0 
-210 211 0 
-210 228 0 
-211 212 0 
-211 226 0 
-212 213 0 
-212 224 0 
-213 214 0 
-213 222 0 
-214 215 0 
-214 220 0 
-23 24 0 
-23 35 0 
-215 216 0 
-215 218 0 
-216 -217 28 0 
-216 -28 217 0 
-218 -219 30 0 
-218 -30 219 0 
-220 -221 32 0 
-220 -32 221 0 
-222 -223 34 0 
-222 -34 223 0 
-224 -225 36 0 
-224 -36 225 0 
-24 25 0 
-24 33 0 
-226 -227 38 0 
-226 -38 227 0 
-228 -229 40 0 
-228 -40 229 0 
-230 -231 42 0 
-230 -42 231 0 
-232 -233 44 0 
-232 -44 233 0 
-234 -235 46 0 
-234 -46 235 0 
-25 26 0 
-25 31 0 
-236 -237 48 0 
-236 -48 237 0 
-238 -239 50 0 
-238 -50 239 0 
-240 -241 52 0 
-240 -52 241 0 
-242 -243 54 0 
-242 -54 243 0 
-244 -245 56 0 
-244 -56 245 0 
-26 27 0 
-26 29 0 
-246 -247 58 0 
-246 -58 247 0 
-27 -28 0 
-2 -3 0 
-29 -30 0 
-31 -32 0 
-33 -34 0 
-35 -36 0 
-3 -4 5 0 
-3 -5 4 0 
-37 -38 0 
-39 -40 0 
-41 -42 0 
-43 -44 0 
-45 -46 0 
-47 -48 0 
-49 -50 0 
-51 -52 0 
-53 -54 0 
-55 -56 0 
-57 -58 0 
-59 -60 62 0 
-59 60 201 0 
-60 2 0 
-60 61 0 
-61 4 0 
-62 -63 154 0 
-62 63 201 0 
-63 152 0 
-63 64 0 
-64 -65 77 0 
-64 65 127 0 
-65 66 74 0 
-66 67 70 0 
-6 -7 0 
-67 -68 0 
-68 -5 69 0 
-68 -69 5 0 
-70 -71 0 
-71 -72 73 0 
-71 -73 72 0 
-74 -75 0 
-75 -9 76 0 
-75 -76 9 0 
-7 -9 8 0 
-7 -8 9 0 
-77 -78 0 
-77 78 96 0 
-78 79 80 0 
-79 9 0 
-80 81 0 
-81 82 0 
-82 83 0 
-83 84 0 
-84 85 0 
-85 86 0 
-86 87 0 
-87 88 0 
-88 89 0 
-89 90 0 
-90 91 0 
-91 92 0 
-92 93 0 
-93 94 0 
-94 95 0 
-95 -72 0 
10 -11 -12 0 
10 -12 -59 0 
10 11 -59 0 
96 -97 -99 0 
96 -99 -127 0 
96 97 -127 0 
97 -67 -98 0 
98 -5 0 
99 -100 -115 0 
99 -115 -127 0 
99 100 -127 0 
11 -8 0 
100 -101 -108 0 
100 -108 -113 0 
100 101 -113 0 
101 -102 0 
101 -105 0 
102 103 0 
103 -73 -104 0 
103 73 104 0 
105 106 0 
106 -76 -107 0 
106 76 107 0 
108 109 -110 0 
109 -76 0 
12 -13 -57 0 
110 -111 0 
110 -113 0 
110 111 -113 0 
111 -102 -112 0 
112 -73 0 
113 -114 0 
13 -14 -55 0 
115 -116 -127 0 
115 -127 -134 0 
115 116 -134 0 
116 -117 -125 0 
117 -118 -123 0 
118 -119 -121 0 
119 -120 0 
121 -122 0 
123 -124 0 
14 -15 -53 0 
125 126 0 
127 -128 -133 0 
128 -129 -132 0 
129 -130 -131 0 
130 -120 0 
131 122 0 
132 -124 0 
133 126 0 
134 -135 -148 0 
15 -16 -51 0 
135 -136 -144 0 
136 -137 -140 0 
137 -138 0 
138 -139 0 
139 120 0 
140 141 0 
141 -142 143 0 
141 -143 142 0 
142 -122 0 
143 -120 0 
144 -145 0 
16 -17 -49 0 
145 -146 147 0 
145 -147 146 0 
146 -124 0 
147 -122 -143 0 
148 149 0 
149 -150 151 0 
149 -151 150 0 
150 -126 0 
151 -124 -147 0 
152 -153 0 
154 -155 -199 0 
17 -18 -47 0 
155 -156 -197 0 
156 -157 -195 0 
157 -158 -193 0 
158 -159 -191 0 
159 -160 -189 0 
160 -161 -187 0 
161 -162 -185 0 
162 -163 -183 0 
163 -164 -181 0 
164 -165 -179 0 
1 -2 0 
1 -6 0 
18 -19 -45 0 
165 -166 -177 0 
166 -167 -175 0 
167 -168 -173 0 
168 -169 -171 0 
169 -28 -170 0 
169 28 170 0 
171 -30 -172 0 
171 30 172 0 
173 -32 -174 0 
173 32 174 0 
19 -20 -43 0 
175 -34 -176 0 
175 34 176 0 
177 -36 -178 0 
177 36 178 0 
179 -38 -180 0 
179 38 180 0 
181 -40 -182 0 
181 40 182 0 
183 -42 -184 0 
183 42 184 0 
20 -21 -41 0 
185 -44 -186 0 
185 44 186 0 
187 -46 -188 0 
187 46 188 0 
189 -48 -190 0 
189 48 190 0 
191 -50 -192 0 
191 50 192 0 
193 -52 -194 0 
193 52 194 0 
21 -22 -39 0 
195 -54 -196 0 
195 54 196 0 
197 -56 -198 0 
197 56 198 0 
199 -58 -200 0 
199 58 200 0 
201 -202 -246 0 
202 -203 -244 0 
203 -204 -242 0 
204 -205 -240 0 
22 -23 -37 0 
205 -206 -238 0 
206 -207 -236 0 
207 -208 -234 0 
208 -209 -232 0 
209 -210 -230 0 
210 -211 -228 0 
211 -212 -226 0 
212 -213 -224 0 
213 -214 -222 0 
214 -215 -220 0 
23 -24 -35 0 
215 -216 -218 0 
216 -28 -217 0 
216 28 217 0 
218 -30 -219 0 
218 30 219 0 
220 -32 -221 0 
220 32 221 0 
222 -34 -223 0 
222 34 223 0 
224 -36 -225 0 
224 36 225 0 
24 -25 -33 0 
226 -38 -227 0 
226 38 227 0 
228 -40 -229 0 
228 40 229 0 
230 -42 -231 0 
230 42 231 0 
232 -44 -233 0 
232 44 233 0 
234 -46 -235 0 
234 46 235 0 
25 -26 -31 0 
236 -48 -237 0 
236 48 237 0 
238 -50 -239 0 
238 50 239 0 
240 -52 -241 0 
240 52 241 0 
242 -54 -243 0 
242 54 243 0 
244 -56 -245 0 
244 56 245 0 
26 -27 -29 0 
246 -58 -247 0 
246 58 247 0 
27 28 0 
2 3 0 
29 30 0 
31 32 0 
33 34 0 
35 36 0 
3 -4 -5 0 
3 4 5 0 
37 38 0 
39 40 0 
41 42 0 
43 44 0 
45 46 0 
47 48 0 
49 50 0 
51 52 0 
53 54 0 
55 56 0 
57 58 0 
59 -60 -62 0 
59 -62 -201 0 
59 60 -201 0 
60 -2 -61 0 
61 -4 0 
62 -154 -201 0 
62 -63 -154 0 
62 63 -201 0 
63 -64 -152 0 
64 -65 -77 0 
64 -77 -127 0 
64 65 -127 0 
65 -66 0 
65 -74 0 
66 -67 0 
66 -70 0 
6 7 0 
67 68 0 
68 -5 -69 0 
68 5 69 0 
70 71 0 
71 -72 -73 0 
71 72 73 0 
74 75 0 
75 -9 -76 0 
75 9 76 0 
7 -8 -9 0 
7 8 9 0 
77 78 -96 0 
78 -79 0 
78 -80 0 
79 -9 0 
80 -81 0 
81 -82 0 
82 -83 0 
83 -84 0 
84 -85 0 
85 -86 0 
86 -87 0 
87 -88 0 
88 -89 0 
89 -90 0 
90 -91 0 
91 -92 0 
92 -93 0 
93 -94 0 
94 -95 0 
95 72 0 
